SCIP Status        : solving was interrupted [time limit reached]
Total Time         :    3600.01
  solving          :    3600.00
  presolving       :       0.24 (included in solving)
  reading          :       0.01
  copying          :       0.57 (31 #copies) (minimal 0.00, maximal 0.03, average 0.02)
Original Problem   :
  Problem name     : bbbenchmark/g05_60.7.cut
  Variables        : 61 (60 binary, 0 integer, 0 implicit integer, 1 continuous)
  Constraints      : 1 initial, 1 maximal
  Objective        : minimize, 1 non-zeros (abs.min = 1, abs.max = 1)
Presolved Problem  :
  Problem name     : t_bbbenchmark/g05_60.7.cut
  Variables        : 946 (60 binary, 0 integer, 885 implicit integer, 1 continuous)
  Constraints      : 886 initial, 5647 maximal
  Objective        : minimize, 1 non-zeros (abs.min = 1, abs.max = 1)
  Nonzeros         : 3601 constraint, 122 clique table
Presolvers         :   ExecTime  SetupTime  Calls  FixedVars   AggrVars   ChgTypes  ChgBounds   AddHoles    DelCons    AddCons   ChgSides   ChgCoefs
  boundshift       :       0.00       0.00      0          0          0          0          0          0          0          0          0          0
  convertinttobin  :       0.00       0.00      0          0          0          0          0          0          0          0          0          0
  domcol           :       0.00       0.00      1          0          0          0          0          0          0          0          0          0
  dualagg          :       0.00       0.00      0          0          0          0          0          0          0          0          0          0
  dualcomp         :       0.00       0.00      1          0          0          0          0          0          0          0          0          0
  dualinfer        :       0.00       0.00      0          0          0          0          0          0          0          0          0          0
  dualsparsify     :       0.00       0.00      1          0          0          0          0          0          0          0          0          0
  gateextraction   :       0.00       0.00      0          0          0          0          0          0          0          0          0          0
  implics          :       0.00       0.00      2          0          0          0          0          0          0          0          0          0
  inttobinary      :       0.00       0.00      0          0          0          0          0          0          0          0          0          0
  qpkktref         :       0.00       0.00      0          0          0          0          0          0          0          0          0          0
  redvub           :       0.00       0.00      0          0          0          0          0          0          0          0          0          0
  sparsify         :       0.00       0.00      1          0          0          0          0          0          0          0          0          0
  stuffing         :       0.00       0.00      0          0          0          0          0          0          0          0          0          0
  trivial          :       0.00       0.00      4          0          0          0          0          0          0          0          0          0
  tworowbnd        :       0.00       0.00      0          0          0          0          0          0          0          0          0          0
  dualfix          :       0.00       0.00      4          0          0          0          0          0          0          0          0          0
  genvbounds       :       0.00       0.00      0          0          0          0          0          0          0          0          0          0
  probing          :       0.12       0.00      1          0          0          0          0          0          0          0          0          0
  pseudoobj        :       0.00       0.00      1          0          0          0          1          0          0          0          0          0
  symmetry         :       0.00       0.00      0          0          0          0          0          0          0          0          0          0
  vbounds          :       0.00       0.00      1          0          0          0          0          0          0          0          0          0
  and              :       0.00       0.01      2          0          0          0          0          0          0          0          0          0
  linear           :       0.01       0.00      2          0          0          0          0          0          0          0          0          0
  logicor          :       0.00       0.00      0          0          0          0          0          0          0          0          0          0
  nonlinear        :       0.11       0.00      5          0          0          0          1          0          0        885          0          0
  benders          :       0.00       0.00      0          0          0          0          0          0          0          0          0          0
  components       :       0.00       0.00      1          0          0          0          0          0          0          0          0          0
  root node        :          -          -      -          0          -          -         48          -          -          -          -          -
Constraints        :     Number  MaxNumber  #Separate #Propagate    #EnfoLP    #EnfoRelax  #EnfoPS    #Check   #ResProp    Cutoffs    DomReds       Cuts    Applied      Conss   Children
  benderslp        :          0          0          0          0      75845          0          0       6412          0          0          0          0          0          0          0
  integral         :          0          0          0          0      75845          0          0       6412          0          1      11628          0          0       5326     145250
  and              :        885        885      83662     491722         19          0          0         32      92732         76    2900472       1559       1375          0          0
  linear           :          1          1        129     491646         19          0          0         30          0          0          0          0          0          0          0
  logicor          :          0+      4761          0     132308          0          0          0          0       1740        766        217          0          0          0          0
  benders          :          0          0          0          0         19          0          0         33          0          0          0          0          0          0          0
  countsols        :          0          0          0          0         19          0          0         33          0          0          0          0          0          0          0
  components       :          0          0          0          0          0          0          0          0          0          0          0          0          0          0          0
Constraint Timings :  TotalTime  SetupTime   Separate  Propagate     EnfoLP     EnfoPS     EnfoRelax   Check    ResProp    SB-Prop
  benderslp        :       0.09       0.00       0.00       0.00       0.08       0.00       0.00       0.01       0.00       0.00
  integral         :      57.83       0.00       0.00       0.00      57.83       0.00       0.00       0.00       0.00       0.00
  and              :      47.62       0.01      27.62      18.85       0.00       0.00       0.00       0.00       0.06       1.08
  linear           :       0.34       0.00       0.04       0.30       0.00       0.00       0.00       0.00       0.00       0.00
  logicor          :       9.17       0.00       0.00       9.06       0.00       0.00       0.00       0.00       0.02       0.09
  benders          :       0.00       0.00       0.00       0.00       0.00       0.00       0.00       0.00       0.00       0.00
  countsols        :       0.00       0.00       0.00       0.00       0.00       0.00       0.00       0.00       0.00       0.00
  components       :       0.18       0.00       0.00       0.18       0.00       0.00       0.00       0.00       0.00       0.00
Propagators        : #Propagate   #ResProp    Cutoffs    DomReds
  dualfix          :          4          0          0          0
  genvbounds       :          0          0          0          0
  nlobbt           :          0          0          0          0
  obbt             :          0          0          0          0
  probing          :          0          0          0          0
  pseudoobj        :     403542          0          0         49
  redcost          :     185028          0          0     496232
  rootredcost      :         33          0          0          0
  symmetry         :          0          0          0          0
  vbounds          :      41780          0          0          0
Propagator Timings :  TotalTime  SetupTime   Presolve  Propagate    ResProp    SB-Prop
  dualfix          :       0.00       0.00       0.00       0.00       0.00       0.00
  genvbounds       :       0.34       0.00       0.00       0.34       0.00       0.00
  nlobbt           :       0.00       0.00       0.00       0.00       0.00       0.00
  obbt             :       0.00       0.00       0.00       0.00       0.00       0.00
  probing          :       0.12       0.00       0.12       0.00       0.00       0.00
  pseudoobj        :       0.74       0.00       0.00       0.73       0.00       0.01
  redcost          :       6.72       0.00       0.00       6.72       0.00       0.00
  rootredcost      :       0.39       0.00       0.00       0.38       0.00       0.01
  symmetry         :       0.34       0.00       0.00       0.31       0.00       0.03
  vbounds          :       0.32       0.00       0.00       0.30       0.00       0.02
Conflict Analysis  :       Time      Calls    Success    DomReds  Conflicts   Literals    Reconvs ReconvLits   Dualrays   Nonzeros   LP Iters   (pool size: [10000,10000])
  propagation      :       0.01        842        501          -        580       25.4          0        0.0          -          -          -
  infeasible LP    :       0.00          0          0          -          0        0.0          0        0.0          0        0.0          0
  bound exceed. LP :      14.76      11441       8508          -      44625       31.6         17       22.1          0        0.0      57241
  strong branching :       0.00          0          0          -          0        0.0          0        0.0          -          -          0
  pseudo solution  :       0.00          0          0          -          0        0.0          0        0.0          -          -          -
  applied globally :       0.19          -          -          0      19310       31.4          -          -          0          -          -
  applied locally  :          -          -          -          0          0        0.0          -          -          0          -          -
Separators         :   ExecTime  SetupTime      Calls  RootCalls    Cutoffs    DomReds  FoundCuts ViaPoolAdd  DirectAdd    Applied ViaPoolApp  DirectApp      Conss
  cut pool         :       2.18          -      14516        163          -          -      21209     381908          -          -          -          -          -    (maximal pool size:       1272)
  aggregation      :      33.90       0.00       4278        129          0          0         21          6          0          6          6          0          0
  > cmir           :          -          -          -          -          -          -          -          6          0          6          6          0          -
  > flowcover      :          -          -          -          -          -          -          -          0          0          0          0          0          -
  > knapsackcover  :          -          -          -          -          -          -          -          0          0          0          0          0          -
  cgmip            :       0.00       0.00          0          0          0          0          0          0          0          0          0          0          0
  clique           :       0.00       0.00        129        129          0          0          0          0          0          0          0          0          0
  closecuts        :       0.00       0.00          0          0          0          0          0          0          0          0          0          0          0
  convexproj       :       0.00       0.00          0          0          0          0          0          0          0          0          0          0          0
  disjunctive      :       0.00       0.00          0          0          0          0          0          0          0          0          0          0          0
  eccuts           :       0.00       0.00          0          0          0          0          0          0          0          0          0          0          0
  gauge            :       0.00       0.00          0          0          0          0          0          0          0          0          0          0          0
  gomory           :       0.00       0.00          0          0          0          0          0          0          0          0          0          0          0
  > gomorymi       :          -          -          -          -          -          -          -          0          0          0          0          0          -
  > strongcg       :          -          -          -          -          -          -          -          0          0          0          0          0          -
  impliedbounds    :       0.12       0.00       4278        129          0          0          4          0          0          0          0          0          0
  interlattice     :       0.26       0.00         87         87          0          0         87          0         87         86          0         86          0
  interminor       :       0.00       0.00          0          0          0          0          0          0          0          0          0          0          0
  intersub         :       0.02       0.00          2          2          0          0          2          0          2          2          0          2          0
  intobj           :       0.00       0.00          0          0          0          0          0          0          0          0          0          0          0
  mcf              :       0.00       0.00          1          1          0          0          0          0          0          0          0          0          0
  minor            :       0.00       0.00          0          0          0          0          0          0          0          0          0          0          0
  mixing           :       0.00       0.00       4278        129          0          0          0          0          0          0          0          0          0
  oddcycle         :       0.00       0.00          0          0          0          0          0          0          0          0          0          0          0
  rapidlearning    :       0.00       0.00          0          0          0          0          0          0          0          0          0          0          0
  rlt              :       0.00       0.00         10         10          0          0          0          0          0          0          0          0          0
  zerohalf         :      20.74       0.00       3509         20          0          0      21184     381902          0      62511      62511          0          0
Cutselectors       :   ExecTime  SetupTime      Calls  RootCalls   Selected     Forced   Filtered  RootSelec   RootForc   RootFilt 
  hybrid           :       0.36       0.00       8928        132      63980          0     319576        275          0         29
Pricers            :   ExecTime  SetupTime      Calls       Vars
  problem variables:       0.00          -          0          0
Branching Rules    :   ExecTime  SetupTime   BranchLP  BranchExt   BranchPS    Cutoffs    DomReds       Cuts      Conss   Children
  allfullstrong    :       0.00       0.00          0          0          0          0          0          0          0          0
  cloud            :       0.00       0.00          0          0          0          0          0          0          0          0
  distribution     :       0.00       0.00          0          0          0          0          0          0          0          0
  fullstrong       :       0.00       0.00          0          0          0          0          0          0          0          0
  inference        :       0.00       0.00          0          0          0          0          0          0          0          0
  leastinf         :       0.00       0.00          0          0          0          0          0          0          0          0
  lookahead        :       0.00       0.00          0          0          0          0          0          0          0          0
  mostinf          :       0.00       0.00          0          0          0          0          0          0          0          0
  multaggr         :       0.00       0.00          0          0          0          0          0          0          0          0
  nodereopt        :       0.00       0.00          0          0          0          0          0          0          0          0
  pscost           :       0.00       0.00          0          0          0          0          0          0          0          0
  random           :       0.00       0.00          0          0          0          0          0          0          0          0
  relpscost        :      57.66       0.00      75826          0          0          1      11628          0       5354     145250
  vanillafullstrong:       0.00       0.00          0          0          0          0          0          0          0          0
Primal Heuristics  :   ExecTime  SetupTime      Calls      Found       Best
  LP solutions     :       0.03          -          -         19         19
  relax solutions  :       0.00          -          -          0          0
  pseudo solutions :       0.00          -          -          0          0
  strong branching :       0.04          -          -          7          7
  actconsdiving    :       0.00       0.00          0          0          0
  adaptivediving   :       2.67       0.00         98          0          0
  alns             :       1.07       0.00         22          2          2
  bound            :       0.00       0.00          0          0          0
  clique           :       0.01       0.00          1          0          0
  coefdiving       :       0.00       0.00          0          0          0
  completesol      :       0.00       0.00          0          0          0
  conflictdiving   :       6.45       0.00        335          0          0
  crossover        :       0.00       0.00          0          0          0
  dins             :       0.00       0.00          0          0          0
  distributiondivin:      19.68       0.00        335          0          0
  dps              :       0.00       0.00          0          0          0
  dualval          :       0.00       0.00          0          0          0
  farkasdiving     :       0.00       0.00          0          0          0
  feaspump         :       0.02       0.00          0          0          0
  fixandinfer      :       0.00       0.00          0          0          0
  fracdiving       :      10.29       0.00        335          0          0
  gins             :       0.03       0.00          0          0          0
  guideddiving     :       9.73       0.00        335          1          1
  indicator        :       0.16       0.00          0          0          0
  indicatordiving  :       0.00       0.00          0          0          0
  intdiving        :       0.00       0.00          0          0          0
  intshifting      :       0.01       0.00          9          0          0
  linesearchdiving :      10.25       0.00        335          0          0
  localbranching   :       0.00       0.00          0          0          0
  locks            :       0.00       0.00          1          0          0
  lpface           :       0.14       0.00          0          0          0
  mpec             :       1.55       0.00          1          0          0
  multistart       :       0.00       0.00          0          0          0
  mutation         :       0.00       0.00          0          0          0
  nlpdiving        :       4.21       0.00          8          0          0
  objpscostdiving  :      18.09       0.00         63          4          3
  octane           :       0.00       0.00          0          0          0
  ofins            :       0.16       0.00          0          0          0
  oneopt           :       0.10       0.00         40          0          0
  padm             :       0.00       0.00          0          0          0
  proximity        :       0.00       0.00          0          0          0
  pscostdiving     :      11.03       0.00        335          2          2
  randrounding     :       0.58       0.00       6375          0          0
  rens             :       0.00       0.00          0          0          0
  reoptsols        :       0.00       0.00          0          0          0
  repair           :       0.00       0.00          0          0          0
  rins             :       3.14       0.00         11          1          1
  rootsoldiving    :       7.51       0.00         24          0          0
  rounding         :       0.74       0.00       3998          0          0
  shiftandpropagate:       0.00       0.00          0          0          0
  shifting         :      17.04       0.00       8689         10          6
  simplerounding   :       0.20       0.00          0          0          0
  subnlp           :      73.63       0.00          0          0          0
  trivial          :       0.00       0.00          2          2          2
  trivialnegation  :       0.00       0.00          0          0          0
  trustregion      :       0.00       0.00          0          0          0
  trysol           :       0.12       0.00          0          0          0
  twoopt           :       0.00       0.00          0          0          0
  undercover       :       1.08       0.00          1          1          1
  vbounds          :       0.00       0.00          0          0          0
  veclendiving     :       5.19       0.00        335          0          0
  zeroobj          :       0.00       0.00          0          0          0
  zirounding       :       0.34       0.00       1000          0          0
  other solutions  :          -          -          -          0          -
Diving (single)    :      Calls      Nodes   LP Iters Backtracks  Conflicts   MinDepth   MaxDepth   AvgDepth  RoundSols  NLeafSols  MinSolDpt  MaxSolDpt  AvgSolDpt
  actconsdiving    :          0          -          -          -          -          -          -          -          -          -          -          -          -
  coefdiving       :          0          -          -          -          -          -          -          -          -          -          -          -          -
  conflictdiving   :        335       6067      55474        357       4865         21         45       32.2          0          -          -          -          -
  distributiondivin:        335       4178     133278        519       3706         20         38       25.7          0          -          -          -          -
  farkasdiving     :          0          -          -          -          -          -          -          -          -          -          -          -          -
  fracdiving       :        335      34202      95456        244       1551         27        251      116.2          0          -          -          -          -
  guideddiving     :        335      30038      94697        222       1712         30        197      103.8          0          1         62         62       62.0
  indicatordiving  :          0          -          -          -          -          -          -          -          -          -          -          -          -
  linesearchdiving :        335       8212     100173        414       6226         23         54       38.0          0          -          -          -          -
  pscostdiving     :        335       5820     118711        342       5055         22         43       31.1          0          2         37         43       40.0
  veclendiving     :        335       6281      39151        342       5639         21         44       32.6          0          -          -          -          -
Diving (adaptive)  :      Calls      Nodes   LP Iters Backtracks  Conflicts   MinDepth   MaxDepth   AvgDepth  RoundSols  NLeafSols  MinSolDpt  MaxSolDpt  AvgSolDpt
  actconsdiving    :         18        216       6354         39        223         22         32       24.7          0          -          -          -          -
  coefdiving       :         29        534       5157         30        531         27         39       31.6          0          -          -          -          -
  conflictdiving   :          0          -          -          -          -          -          -          -          -          -          -          -          -
  distributiondivin:          0          -          -          -          -          -          -          -          -          -          -          -          -
  farkasdiving     :          0          -          -          -          -          -          -          -          -          -          -          -          -
  fracdiving       :          7        715       1390          3         14         52        158      117.4          0          -          -          -          -
  guideddiving     :          8        924       3260          6         40         51        164      128.6          0          -          -          -          -
  indicatordiving  :          0          -          -          -          -          -          -          -          -          -          -          -          -
  linesearchdiving :         14        323       2930         15        211         26         47       37.5          0          -          -          -          -
  pscostdiving     :         10        164       3963         11        148         24         35       29.8          0          -          -          -          -
  veclendiving     :         12        222       1344         12        197         29         38       32.8          0          -          -          -          -
Neighborhoods      :      Calls  SetupTime  SolveTime SolveNodes       Sols       Best       Exp3  EpsGreedy        UCB TgtFixRate  Opt  Inf Node Stal  Sol  Usr Othr Actv
  rens             :          2       0.02       0.00          0          0          0    0.00000   -1.00000    0.30008      0.700    0    1    0    0    0    0    1    1
  rins             :          2       0.04       0.00          0          0          0    0.00000   -1.00000    0.30008      0.700    0    1    0    0    0    0    1    1
  mutation         :          6       0.21       0.20        123          2          2    0.00000   -1.00000    0.50640      0.562    1    3    0    2    0    0    0    1
  localbranching   :          2       0.06       0.02          2          0          0    0.00000   -1.00000    0.54817      0.550    0    2    0    0    0    0    0    1
  crossover        :          3       0.09       0.00          2          0          0    0.00000   -1.00000    0.53876      0.437    0    3    0    0    0    0    0    1
  proximity        :          2       0.05       0.01          2          0          0    0.00000   -1.00000    0.54817      0.550    0    2    0    0    0    0    0    1
  zeroobjective    :          3       0.08       0.15         67          0          0    0.00000   -1.00000    0.44934      0.662    0    2    0    1    0    0    0    1
  dins             :          2       0.02       0.01          1          0          0    0.00000   -1.00000    0.29958      0.700    0    1    0    0    0    0    1    1
  trustregion      :          0       0.00       0.00          0          0          0    0.00000   -1.00000    1.00000      0.900    0    0    0    0    0    0    0    0
Expressions        :   #IntEval  IntEvalTi   #RevProp  RevPropTi    DomReds    Cutoffs  #Estimate  EstimTime  Branching  #Simplify SimplifyTi Simplified
  pow              :          0       0.00          0       0.00          0          0          0       0.00          0          0       0.00          0
  prod             :       3540       0.01          0       0.00          0          0          0       0.00          0       2655       0.00          0
  sum              :          8       0.00          2       0.00          0          0          0       0.00          0          3       0.02          2
  var              :       3327       0.00          0       0.00          0          0          0       0.00          0       6378       0.00          0
  varidx           :          0       0.00          0       0.00          0          0          0       0.00          0          0       0.00          0
LP                 :       Time      Calls Iterations  Iter/call   Iter/sec  Time-0-It Calls-0-It    ItLimit
  primal LP        :     161.39      15056          0       0.00       0.00     161.34      15056
  dual LP          :    2935.84     176655   22517795     147.94    7669.97       7.33      24441
  lex dual LP      :       0.00          0          0       0.00          -
  barrier LP       :       0.00          0          0       0.00          -       0.00          0
  resolve instable :       0.00          0          0       0.00          -
  diving/probing LP:      76.46       7821     882972     112.90   11548.16
  strong branching :      34.18       5910     416636      70.50   12189.47          -          -        108
    (at root node) :          -         19       4744     249.68          -
  conflict analysis:       7.44       5770      57241       9.92    7693.68
NLP relaxation     :
  solve time       :       4.20 (8 calls)
  convexity        :  nonconvex (1 linear rows, 0 convex ineq., 0 nonconvex ineq., 885 nonlinear eq. or two-sided ineq.)
NLP Solvers        :  #Problems  ProblemTi    #Solves  SolveTime      #Iter  Time/Iter      #Okay #TimeLimit #IterLimit #LObjLimit #Interrupt  #NumError #EvalError  #OutOfMem #LicenseEr #OtherTerm   #GlobOpt    #LocOpt  #Feasible #LocInfeas #GlobInfea #Unbounded   #Unknown
  ipopt            :          2       5.22         11       5.81        335       0.02         11          0          0          0          0          0          0          0          0          0          0          0          0          3          0          0          8
B&B Tree           :
  number of runs   :          1
  nodes            :     140301 (72625 internal, 67676 leaves)
  feasible leaves  :         19
  infeas. leaves   :        215
  objective leaves :      67441
  nodes (total)    :     140301 (72625 internal, 67676 leaves)
  nodes left       :       4892
  max depth        :         33
  max depth (total):         33
  backtracks       :      37482 (26.7%)
  early backtracks :          0 (0.0%)
  nodes exc. ref.  :          0 (0.0%)
  delayed cutoffs  :          4
  repropagations   :       3387 (394 domain reductions, 0 cutoffs)
  avg switch length:       4.53
  switching time   :     187.45
Estim. Tree Size   :     432108
Estimation Tree    : 145251 nodes (140359 visited, 72625 internal, 67734 leaves, 4892 open), weight: 0.3244 completed 0.5571
Estimations        :      estim      value      trend resolution     smooth
  wbe              :     417590          -          -          -          -
  tree-profile     :         -1          -          -          -          -
  gap              :     429074    0.92842    0.00006        128     433405
  tree-weight      :     432109    0.32440    0.00058        128     430913
  leaf-frequency   :     544607    0.48257    0.00001        128     557187
  ssg              :     348275    0.30822   -0.00037        128     345960
  open-nodes       :    2102290 4892.00000   -0.63672        128    2193727
Root Node          :
  First LP value   : -1.00000000000000e+00
  First LP Iters   :        610 (20333.33 Iter/sec)
  First LP Time    :       0.03
  Final Dual Bound : -8.86354243168984e-01
  Final Root Iters :       2934
  Root LP Estimate : -5.37423587802716e-01
Solution           :
  Solutions found  :         49 (44 improvements)
  First Solution   : +1.00000000000000e+05   (in run 1, after 0 nodes, 0.03 seconds, depth 0, found by <trivial>)
  Gap First Sol.   :   infinite
  Gap Last Sol.    :      16.15 %
  Primal Bound     : -6.04519774011300e-01   (in run 1, after 46846 nodes, 1021.49 seconds, depth 22, found by <relaxation>)
  Dual Bound       : -6.51129943502825e-01
  Gap              :       7.71 %
Integrals          :      Total       Avg%
  primal-dual      :   44192.15      12.28
  primal-ref       :          -          - (not evaluated)
  dual-ref         :          -          - (not evaluated)
